6 100 381
0 86 22
1 29 17 1 58
2 4 50 23 26
3 25 13 23 77
4 67 37 5 13
5 13 7 7 69
6 62 15 18 16
7 84 38 12 70
8 34 3 20 14
9 19 45 19 74
10 42 76 19 74
11 40 86 16 66
12 25 94 2 33
13 63 57 26 79
14 75 24 13 4
15 61 85 19 73
16 87 38 17 27
17 54 39 14 36
18 66 34 8 61
19 46 39 10 17
20 47 17 5 11
21 21 54 19 26
22 19 83 12 40
23 1 82 9 63
24 94 28 18 67
25 82 72 4 63
26 41 59 20 50
27 100 77 8 77
28 1 57 3 68
29 96 7 18 77
30 57 82 26 6
31 47 38 21 12
32 68 89 21 73
33 16 36 8 5
34 51 38 19 62
35 83 74 66 44
36 84 2 21 39
